
Gurobi 13.0.2 (win64) logging started Thu Jul 23 16:06:37 2026

Set parameter LogFile to value "E:\codes\ExactEBRP\results\gf_gurobi_performance_recovery_round29\runs\stage2__high_imbalance_seed4201__c3_replica__300s\external\native_logs\R.1.0.0.0.1.1_lp.gurobi.log"
Gurobi Optimizer version 13.0.2 build v13.0.2rc1 (win64 - Windows 10.0 (19045.2))

CPU model: 12th Gen Intel(R) Core(TM) i7-12700KF, instruction set [SSE2|AVX|AVX2]
Thread count: 12 physical cores, 20 logical processors, using up to 1 threads

Non-default parameters:
TimeLimit  253.7315256
MIPGap  0
MIPGapAbs  0
LogToConsole  0
Threads  1

Optimize a model with 11902 rows, 3374 columns and 67341 nonzeros (Min)
Model fingerprint: 0x73984926
Model has 21 linear objective coefficients
Coefficient statistics:
  Matrix range     [1e-02, 2e+04]
  Objective range  [1e-02, 1e+00]
  Bounds range     [5e-01, 2e+03]
  RHS range        [5e-01, 5e+04]

Presolve removed 1623 rows and 108 columns
Presolve time: 0.03s
Presolved: 10279 rows, 3267 columns, 52253 nonzeros

Iteration    Objective       Primal Inf.    Dual Inf.      Time
       0    2.2601676e+00   6.315479e+02   0.000000e+00      0s
    3538    2.6936897e+00   0.000000e+00   0.000000e+00      0s

Solved in 3538 iterations and 0.22 seconds (0.61 work units)
Optimal objective  2.693689672e+00

User-callback calls 3682, time in user-callback 0.00 sec
